62      4       
17      22      12      13      
0       0       0       0       0       3       2       3       4       
4       8       0       0       0       3       5       6       19      
1       0       2       0       0       3       9       14      23      
9       7       0       0       0       3       7       8       28      
2       0       0       0       5       2       11      33      
5       0       0       3       0       3       20      23      30      
5       10      0       0       0       2       34      38      
3       9       0       0       0       3       9       12      13      
3       6       0       0       0       3       10      29      48      
5       0       0       4       0       3       15      16      41      
5       0       0       3       0       2       24      38      
8       8       0       0       0       2       24      49      
2       0       10      0       0       2       14      17      
7       0       0       0       10      3       21      25      32      
7       1       0       0       0       3       18      39      53      
9       9       0       0       0       3       22      31      54      
3       3       0       0       0       2       22      32      
10      0       5       0       0       3       22      33      34      
9       0       5       0       0       3       25      26      52      
4       0       5       0       0       2       37      52      
10      0       6       0       0       2       29      36      
9       0       0       0       4       1       30      
10      0       0       0       6       1       28      
6       2       0       0       0       3       39      43      54      
5       0       0       0       1       3       27      31      44      
10      0       8       0       0       3       36      37      41      
10      0       0       5       0       3       33      41      48      
2       9       0       0       0       3       29      31      35      
5       0       0       9       0       3       39      46      52      
10      0       10      0       0       3       35      40      57      
1       0       7       0       0       1       42      
8       0       0       0       9       3       36      37      40      
6       0       0       0       2       2       35      38      
5       4       0       0       0       2       44      57      
3       0       0       0       4       2       46      49      
3       3       0       0       0       3       42      47      48      
3       0       10      0       0       3       42      43      45      
3       1       0       0       0       1       61      
5       0       0       5       0       2       50      56      
1       0       0       4       0       3       43      44      51      
6       1       0       0       0       3       47      50      51      
4       0       3       0       0       2       46      51      
6       9       0       0       0       1       55      
1       0       0       3       0       3       49      50      61      
8       0       4       0       0       2       47      58      
3       0       10      0       0       1       61      
6       10      0       0       0       2       53      54      
5       0       0       0       6       1       56      
7       0       5       0       0       1       58      
9       0       9       0       0       1       58      
1       10      0       0       0       2       56      59      
7       5       0       0       0       1       53      
10      0       10      0       0       2       55      57      
1       0       0       6       0       1       55      
3       0       0       5       0       2       59      60      
7       0       10      0       0       1       60      
7       4       0       0       0       1       59      
10      0       0       0       3       1       60      
1       0       1       0       0       1       62      
6       0       7       0       0       1       62      
2       10      0       0       0       1       62      
0       0       0       0       0       0       